p cnf 7230 17
-3336 -3337 0
-305 -3200 -3334 0
-303 -3198 -3332 0
305 -3335 0
303 -3333 0
3334 3335 0
3332 3333 0
3330 3331 0
2732 -3331 0
-2732 -3330 0
3200 -3335 0
3198 -3333 0
-307 -3180 3337 0
3328 3329 0
-3328 -3329 0
3180 -3337 0
307 -3337 0
